16 16
10
3 3 0 8
3 4 3 0
3 5 0 11
3 6 13 10
3 7 10 9
3 8 0 0
3 10 13 0
3 12 3 4
4 7 6 9
7 9 6 0
% time elapsed: 0.15 s
% time elapsed: 0.15 s
%%%mzn-stat: initTime=0.000268
%%%mzn-stat: solveTime=0.064767
%%%mzn-stat: solutions=30
%%%mzn-stat: variables=21
%%%mzn-stat: propagators=15
%%%mzn-stat: propagations=126723
%%%mzn-stat: nodes=21049
%%%mzn-stat: failures=10458
%%%mzn-stat: restarts=0
%%%mzn-stat: peakDepth=30
%%%mzn-stat-end
